WARNING: for repeatability, setting FPU to use double precision
============================[ Problem Statistics ]=============================
|                                                                             |
|  Number of variables:            50                                         |
|  Number of clauses:             218                                         |
|  Parse time:                   0.00 s                                       |
|                                                                             |
============================[ Search Statistics ]==============================
| Conflicts |          ORIGINAL         |          LEARNT          | Progress |
|           |    Vars  Clauses Literals |    Limit  Clauses Lit/Cl |          |
===============================================================================
===============================================================================
restarts              : 1
conflicts             : 40             (27529 /sec)
decisions             : 56             (0.00 % random) (38541 /sec)
propagations          : 595            (409498 /sec)
conflict literals     : 191            (11.57 % deleted)
Memory used           : 20.00 MB
CPU time              : 0.001453 s

SATISFIABLE
